744.17 0
0 30 48 47 36 69 71 60 70 20 37 5 29 0 
0 58 10 31 39 9 40 17 0 
0 75 68 2 28 62 73 1 33 6 0 
0 12 72 38 65 66 11 53 7 26 0 
0 8 35 14 59 19 54 13 57 15 45 0 
0 3 44 32 50 25 55 18 24 49 16 51 0 
0 63 23 56 41 43 42 64 22 61 21 74 0 
0 4 27 52 46 34 67 0 
